NAME : CMT2
COMMENT : 835.26
TYPE : CVRP
DIMENSION : 76
EDGE_WEIGHT_TYPE : EUC_2D
CAPACITY : 140
NODE_COORD_SECTION
1 40.00000 40.00000
2 22.00000 22.00000
3 36.00000 26.00000
4 21.00000 45.00000
5 45.00000 35.00000
6 55.00000 20.00000
7 33.00000 34.00000
8 50.00000 50.00000
9 55.00000 45.00000
10 26.00000 59.00000
11 40.00000 66.00000
12 55.00000 65.00000
13 35.00000 51.00000
14 62.00000 35.00000
15 62.00000 57.00000
16 62.00000 24.00000
17 21.00000 36.00000
18 33.00000 44.00000
19 9.00000 56.00000
20 62.00000 48.00000
21 66.00000 14.00000
22 44.00000 13.00000
23 26.00000 13.00000
24 11.00000 28.00000
25 7.00000 43.00000
26 17.00000 64.00000
27 41.00000 46.00000
28 55.00000 34.00000
29 35.00000 16.00000
30 52.00000 26.00000
31 43.00000 26.00000
32 31.00000 76.00000
33 22.00000 53.00000
34 26.00000 29.00000
35 50.00000 40.00000
36 55.00000 50.00000
37 54.00000 10.00000
38 60.00000 15.00000
39 47.00000 66.00000
40 30.00000 60.00000
41 30.00000 50.00000
42 12.00000 17.00000
43 15.00000 14.00000
44 16.00000 19.00000
45 21.00000 48.00000
46 50.00000 30.00000
47 51.00000 42.00000
48 50.00000 15.00000
49 48.00000 21.00000
50 12.00000 38.00000
51 15.00000 56.00000
52 29.00000 39.00000
53 54.00000 38.00000
54 55.00000 57.00000
55 67.00000 41.00000
56 10.00000 70.00000
57 6.00000 25.00000
58 65.00000 27.00000
59 40.00000 60.00000
60 70.00000 64.00000
61 64.00000 4.00000
62 36.00000 6.00000
63 30.00000 20.00000
64 20.00000 30.00000
65 15.00000 5.00000
66 50.00000 70.00000
67 57.00000 72.00000
68 45.00000 42.00000
69 38.00000 33.00000
70 50.00000 4.00000
71 66.00000 8.00000
72 59.00000 5.00000
73 35.00000 60.00000
74 27.00000 24.00000
75 40.00000 20.00000
76 40.00000 37.00000
DEMAND_SECTION
1 0
2 18
3 26
4 11
5 30
6 21
7 19
8 15
9 16
10 29
11 26
12 37
13 16
14 12
15 31
16 8
17 19
18 20
19 13
20 15
21 22
22 28
23 12
24 6
25 27
26 14
27 18
28 17
29 29
30 13
31 22
32 25
33 28
34 27
35 19
36 10
37 12
38 14
39 24
40 16
41 33
42 15
43 11
44 18
45 17
46 21
47 27
48 19
49 20
50 5
51 22
52 12
53 19
54 22
55 16
56 7
57 26
58 14
59 21
60 24
61 13
62 15
63 18
64 11
65 28
66 9
67 37
68 30
69 10
70 8
71 11
72 3
73 1
74 6
75 10
76 20
DEPOT_SECTION
1
-1
EOF
